4 
5  48 
6  04 19 34 50 
7  00 05 10 15 20 25 30 35 40 45 50 55 
8  00 05 10 15 20 25 30 35 40 45 50 55 
9  00 05 10 15 20 25 30 35 40 45 50 55 
10  00 05 10 15 21 27 35 42 50 57 
11  05 12 20 27 35 42 50 57 
12  05 12 20 27 35 42 50 57 
13  05 12 20 27 37 44 52 59 
14  06 14 22 29 37 44 52 59 
15  06 14 22 29 37 42 47 51 57 
16  02 07 12 17 21 27 32 36 42 47 51 57 
17  02 06 12 17 21 27 32 36 42 47 51 57 
18  02 06 12 17 21 27 32 37 42 47 52 57 
19  02 07 12 17 22 27 31 37 43 50 57 
20  05 12 20 27 35 41 48 56 
21  04 11 22 37 44 52 
22  07 22 37 47 
23  02 15 30 44 
0 
